SCIP Status        : problem is solved [optimal solution found]
Total Time         :       1.87
  solving          :       1.87
  presolving       :       0.10 (included in solving)
  reading          :       0.00
  copying          :       0.00 (1 #copies) (minimal 0.00, maximal 0.00, average 0.00)
Original Problem   :
  Problem name     : wager
  Variables        : 156 (0 binary, 84 integer, 0 implicit integer, 72 continuous)
  Constraints      : 142 initial, 142 maximal
  Objective        : minimize, 6 non-zeros (abs.min = 0.000786628, abs.max = 0.000923116)
Presolved Problem  :
  Problem name     : t_wager
  Variables        : 314 (12 binary, 40 integer, 73 implicit integer, 189 continuous)
  Constraints      : 143 initial, 145 maximal
  Objective        : minimize, 21 non-zeros (abs.min = 0.000786628, abs.max = 0.000923116)
  Nonzeros         : 543 constraint, 422 clique table
Presolvers         :   ExecTime  SetupTime  Calls  FixedVars   AggrVars   ChgTypes  ChgBounds   AddHoles    DelCons    AddCons   ChgSides   ChgCoefs
  boundshift       :       0.00       0.00      0          0          0          0          0          0          0          0          0          0
  convertinttobin  :       0.00       0.00      0          0          0          0          0          0          0          0          0          0
  domcol           :       0.00       0.00      5          0          0          0          0          0          0          0          0          0
  dualagg          :       0.00       0.00      0          0          0          0          0          0          0          0          0          0
  dualcomp         :       0.00       0.00      5          0          0          0          0          0          0          0          0          0
  dualinfer        :       0.00       0.00      0          0          0          0          0          0          0          0          0          0
  dualsparsify     :       0.00       0.00      1          0          0          0          0          0          0          0          0          0
  gateextraction   :       0.00       0.00      2          0          0          0          0          0          0          0          0          0
  implics          :       0.00       0.00     14          0          0          0          0          0          0          0          0          0
  inttobinary      :       0.00       0.00     21          0          0          0          0          0          0          0          0          0
  qpkktref         :       0.00       0.00      0          0          0          0          0          0          0          0          0          0
  redvub           :       0.00       0.00      0          0          0          0          0          0          0          0          0          0
  sparsify         :       0.00       0.00      1          0          0          0          0          0          0          0          0          0
  stuffing         :       0.00       0.00      0          0          0          0          0          0          0          0          0          0
  trivial          :       0.00       0.00     21         34          0          0          0          0          0          0          0          0
  tworowbnd        :       0.00       0.00      0          0          0          0          0          0          0          0          0          0
  dualfix          :       0.00       0.00     21        163          0          0          0          0          0          0          0          0
  genvbounds       :       0.00       0.00      5          0          0          0          0          0          0          0          0          0
  probing          :       0.04       0.00      4         37          6          0         34          0          0          0          0          0
  pseudoobj        :       0.00       0.00      1          0          0          0          0          0          0          0          0          0
  symmetry         :       0.00       0.00      1          0          0          0          0          0          0          0          0          0
  vbounds          :       0.00       0.00      5          0          0          0          0          0          0          0          0          0
  varbound         :       0.00       0.00     29          0          0          0          1          0          0          0          0          0
  setppc           :       0.00       0.00     41          0          1          0          0          0         10          0          0          0
  and              :       0.00       0.00     26          0          2          0          0          0          3          3          0          0
  linear           :       0.00       0.00     31         24         25          0        129          0         60          0          5          3
  logicor          :       0.00       0.00      5          0          0          0          0          0          0          0          0          0
  bounddisjunction :       0.00       0.00      5          0          0          0          0          0          0          0          0          0
  nonlinear        :       0.05       0.00     41          0          0          0         25          0          0         -3          0         -3
  benders          :       0.00       0.00      0          0          0          0          0          0          0          0          0          0
  components       :       0.00       0.00      2          0          0          0          0          0          0          0          0          0
  root node        :          -          -      -         47          -          -       1182          -          -          -          -          -
Constraints        :     Number  MaxNumber  #Separate #Propagate    #EnfoLP    #EnfoRelax  #EnfoPS    #Check   #ResProp    Cutoffs    DomReds       Cuts    Applied      Conss   Children
  benderslp        :          0          0          0          0         35          0          0         79          0          0          0          0          0          0          0
  integral         :          0          0          0          0         35          0          0         79          0          0        451          0          0          1          8
  varbound         :         16         16         90       2011          0          0          0         73          0          1          6          0          0          0          0
  setppc           :         14         14         90       1851          0          0          0         70          1          5          7          2          1          0          0
  and              :         24         24        124       1910          0          0          0         70          5          2         38         74         23          0          0
  linear           :         43         43         90       2003          0          0          0         57         34         12        192         48          8          0          0
  logicor          :          1+         3         51        109          0          0          0          0          0          0          0          3          2          0          0
  bounddisjunction :          2+         6          0        440          0          0          0          0          0          0          0          0          0          0          0
  nonlinear        :         43         43        124       1991          0          0          0         57          0         32       1141        440        310          0          0
  benders          :          0          0          0          0          0          0          0          2          0          0          0          0          0          0          0
  countsols        :          0          0          0          0          0          0          0          2          0          0          0          0          0          0          0
  components       :          0          0          0          0          0          0          0          0          0          0          0          0          0          0          0
Constraint Timings :  TotalTime  SetupTime   Separate  Propagate     EnfoLP     EnfoPS     EnfoRelax   Check    ResProp    SB-Prop
  benderslp        :       0.00       0.00       0.00       0.00       0.00       0.00       0.00       0.00       0.00       0.00
  integral         :       0.17       0.00       0.00       0.00       0.17       0.00       0.00       0.00       0.00       0.00
  varbound         :       0.00       0.00       0.00       0.00       0.00       0.00       0.00       0.00       0.00       0.00
  setppc           :       0.00       0.00       0.00       0.00       0.00       0.00       0.00       0.00       0.00       0.00
  and              :       0.01       0.00       0.00       0.01       0.00       0.00       0.00       0.00       0.00       0.00
  linear           :       0.01       0.00       0.00       0.01       0.00       0.00       0.00       0.00       0.00       0.00
  logicor          :       0.00       0.00       0.00       0.00       0.00       0.00       0.00       0.00       0.00       0.00
  bounddisjunction :       0.00       0.00       0.00       0.00       0.00       0.00       0.00       0.00       0.00       0.00
  nonlinear        :       0.48       0.00       0.27       0.16       0.00       0.00       0.00       0.01       0.00       0.04
  benders          :       0.00       0.00       0.00       0.00       0.00       0.00       0.00       0.00       0.00       0.00
  countsols        :       0.00       0.00       0.00       0.00       0.00       0.00       0.00       0.00       0.00       0.00
  components       :       0.00       0.00       0.00       0.00       0.00       0.00       0.00       0.00       0.00       0.00
Propagators        : #Propagate   #ResProp    Cutoffs    DomReds
  dualfix          :         49          0          0          0
  genvbounds       :        308          0          0         35
  nlobbt           :          0          0          0          0
  obbt             :         26          0          0         83
  probing          :          0          0          0          0
  pseudoobj        :        348          0          1         85
  redcost          :        240          0          0        406
  rootredcost      :          1          0          0          8
  symmetry         :          0          0          0          0
  vbounds          :       1129          3          7         80
Propagator Timings :  TotalTime  SetupTime   Presolve  Propagate    ResProp    SB-Prop
  dualfix          :       0.00       0.00       0.00       0.00       0.00       0.00
  genvbounds       :       0.00       0.00       0.00       0.00       0.00       0.00
  nlobbt           :       0.00       0.00       0.00       0.00       0.00       0.00
  obbt             :       0.09       0.00       0.00       0.09       0.00       0.00
  probing          :       0.04       0.00       0.04       0.00       0.00       0.00
  pseudoobj        :       0.00       0.00       0.00       0.00       0.00       0.00
  redcost          :       0.01       0.00       0.00       0.01       0.00       0.00
  rootredcost      :       0.00       0.00       0.00       0.00       0.00       0.00
  symmetry         :       0.00       0.00       0.00       0.00       0.00       0.00
  vbounds          :       0.01       0.00       0.00       0.00       0.00       0.00
Conflict Analysis  :       Time      Calls    Success    DomReds  Conflicts   Literals    Reconvs ReconvLits   Dualrays   Nonzeros   LP Iters   (pool size: [10000,10000])
  propagation      :       0.00         19         10          -         11        3.9          0        0.0          -          -          -
  infeasible LP    :       0.00          0          0          -          0        0.0          0        0.0          0        0.0          0
  bound exceed. LP :       0.00          7          1          -          2        1.5          0        0.0          1       31.0          0
  strong branching :       0.00          0          0          -          0        0.0          0        0.0          -          -          0
  pseudo solution  :       0.00          0          0          -          0        0.0          0        0.0          -          -          -
  applied globally :       0.00          -          -          0         11        3.5          -          -          1          -          -
  applied locally  :          -          -          -          0          0        0.0          -          -          0          -          -
Separators         :   ExecTime  SetupTime      Calls  RootCalls    Cutoffs    DomReds  FoundCuts ViaPoolAdd  DirectAdd    Applied ViaPoolApp  DirectApp      Conss
  cut pool         :       0.01          -        198        198          -          -       1386       1466          -          -          -          -          -    (maximal pool size:        696)
  aggregation      :       0.71       0.00         90         90          0          0        973       1118          0        200        200          0          0
  > cmir           :          -          -          -          -          -          -          -       1110          0        193        193          0          -
  > flowcover      :          -          -          -          -          -          -          -          8          0          7          7          0          -
  > knapsackcover  :          -          -          -          -          -          -          -          0          0          0          0          0          -
  cgmip            :       0.00       0.00          0          0          0          0          0          0          0          0          0          0          0
  clique           :       0.00       0.00         90         90          0          0          5         12          0          3          3          0          0
  closecuts        :       0.00       0.00          0          0          0          0          0          0          0          0          0          0          0
  convexproj       :       0.00       0.00          0          0          0          0          0          0          0          0          0          0          0
  disjunctive      :       0.00       0.00          0          0          0          0          0          0          0          0          0          0          0
  eccuts           :       0.00       0.00          0          0          0          0          0          0          0          0          0          0          0
  gauge            :       0.00       0.00          0          0          0          0          0          0          0          0          0          0          0
  gomory           :       0.03       0.00         20         20          0          0        220        165          0         18         18          0          0
  > gomorymi       :          -          -          -          -          -          -          -        153          0         17         17          0          -
  > strongcg       :          -          -          -          -          -          -          -         12          0          1          1          0          -
  impliedbounds    :       0.00       0.00         90         90          0          0        160        127          0         39         39          0          0
  interminor       :       0.00       0.00          0          0          0          0          0          0          0          0          0          0          0
  intobj           :       0.00       0.00          0          0          0          0          0          0          0          0          0          0          0
  mcf              :       0.00       0.00          2          2          0          0          0          0          0          0          0          0          0
  minor            :       0.00       0.00          0          0          0          0          0          0          0          0          0          0          0
  mixing           :       0.00       0.00         90         90          0          0          9         10          0          9          9          0          0
  oddcycle         :       0.00       0.00          0          0          0          0          0          0          0          0          0          0          0
  rapidlearning    :       0.00       0.00          0          0          0          0          0          0          0          0          0          0          0
  rlt              :       0.00       0.00         20         20          0          0          1          1          0          0          0          0          0
  zerohalf         :       0.01       0.00         40         40          0          0         18         33          0         13         13          0          0
Cutselectors       :   ExecTime  SetupTime      Calls  RootCalls   Selected     Forced   Filtered  RootSelec   RootForc   RootFilt 
  hybrid           :       0.00       0.00        125         98        626          5       1406        495          2       1361
Pricers            :   ExecTime  SetupTime      Calls       Vars
  problem variables:       0.00          -          0          0
Branching Rules    :   ExecTime  SetupTime   BranchLP  BranchExt   BranchPS    Cutoffs    DomReds       Cuts      Conss   Children
  allfullstrong    :       0.00       0.00          0          0          0          0          0          0          0          0
  cloud            :       0.00       0.00          0          0          0          0          0          0          0          0
  distribution     :       0.00       0.00          0          0          0          0          0          0          0          0
  fullstrong       :       0.00       0.00          0          0          0          0          0          0          0          0
  inference        :       0.00       0.00          0          0          0          0          0          0          0          0
  leastinf         :       0.00       0.00          0          0          0          0          0          0          0          0
  lookahead        :       0.00       0.00          0          0          0          0          0          0          0          0
  mostinf          :       0.00       0.00          0          0          0          0          0          0          0          0
  multaggr         :       0.00       0.00          0          0          0          0          0          0          0          0
  nodereopt        :       0.00       0.00          0          0          0          0          0          0          0          0
  pscost           :       0.00       0.00          0          0          0          0          0          0          0          0
  random           :       0.00       0.00          0          0          0          0          0          0          0          0
  relpscost        :       0.17       0.00         35          0          0          0        451          0          1          8
  vanillafullstrong:       0.00       0.00          0          0          0          0          0          0          0          0
Primal Heuristics  :   ExecTime  SetupTime      Calls      Found       Best
  LP solutions     :       0.00          -          -          0          0
  relax solutions  :       0.00          -          -          0          0
  pseudo solutions :       0.00          -          -          0          0
  strong branching :       0.00          -          -          0          0
  actconsdiving    :       0.00       0.00          0          0          0
  adaptivediving   :       0.00       0.00          0          0          0
  alns             :       0.01       0.00          1          0          0
  bound            :       0.00       0.00          0          0          0
  clique           :       0.01       0.00          1          0          0
  coefdiving       :       0.00       0.00          0          0          0
  completesol      :       0.00       0.00          0          0          0
  conflictdiving   :       0.01       0.00          2          0          0
  crossover        :       0.00       0.00          0          0          0
  dins             :       0.00       0.00          0          0          0
  distributiondivin:       0.00       0.00          0          0          0
  dps              :       0.00       0.00          0          0          0
  dualval          :       0.00       0.00          0          0          0
  farkasdiving     :       0.00       0.00          0          0          0
  feaspump         :       0.00       0.00          1          0          0
  fixandinfer      :       0.00       0.00          0          0          0
  fracdiving       :       0.00       0.00          0          0          0
  gins             :       0.00       0.00          0          0          0
  guideddiving     :       0.00       0.00          0          0          0
  indicator        :       0.00       0.00          0          0          0
  indicatordiving  :       0.00       0.00          0          0          0
  intdiving        :       0.00       0.00          0          0          0
  intshifting      :       0.00       0.00          1          0          0
  linesearchdiving :       0.00       0.00          0          0          0
  localbranching   :       0.00       0.00          0          0          0
  locks            :       0.00       0.00          1          0          0
  lpface           :       0.00       0.00          0          0          0
  mpec             :       0.00       0.00          0          0          0
  multistart       :       0.00       0.00          0          0          0
  mutation         :       0.00       0.00          0          0          0
  nlpdiving        :       0.00       0.00          0          0          0
  objpscostdiving  :       0.00       0.00          0          0          0
  octane           :       0.00       0.00          0          0          0
  ofins            :       0.00       0.00          0          0          0
  oneopt           :       0.00       0.00          1          0          0
  padm             :       0.00       0.00          0          0          0
  proximity        :       0.00       0.00          0          0          0
  pscostdiving     :       0.00       0.00          0          0          0
  randrounding     :       0.17       0.00        117          0          0
  rens             :       0.00       0.00          0          0          0
  reoptsols        :       0.00       0.00          0          0          0
  repair           :       0.00       0.00          0          0          0
  rins             :       0.00       0.00          0          0          0
  rootsoldiving    :       0.00       0.00          0          0          0
  rounding         :       0.00       0.00        119          0          0
  shiftandpropagate:       0.00       0.00          1          0          0
  shifting         :       0.03       0.00        100          0          0
  simplerounding   :       0.00       0.00          0          0          0
  subnlp           :       0.01       0.00          2          1          1
  trivial          :       0.00       0.00          2          0          0
  trivialnegation  :       0.00       0.00          0          0          0
  trustregion      :       0.00       0.00          0          0          0
  trysol           :       0.00       0.00          0          0          0
  twoopt           :       0.00       0.00          0          0          0
  undercover       :       0.01       0.00          1          0          0
  vbounds          :       0.01       0.00          1          0          0
  veclendiving     :       0.00       0.00          0          0          0
  zeroobj          :       0.00       0.00          0          0          0
  zirounding       :       0.00       0.00          4          0          0
  other solutions  :          -          -          -          0          -
Expressions        :   #IntEval  IntEvalTi   #RevProp  RevPropTi    DomReds    Cutoffs  #Estimate  EstimTime  Branching  #Simplify SimplifyTi Simplified
  pow              :      12694       0.00        353       0.00        183          0       1164       0.00          0        295       0.00        104
  prod             :      68575       0.02       3924       0.00        112          0       4775       0.23          0       1539       0.00        730
  sum              :      24408       0.01      10569       0.01       4373          0        114       0.00          0       1257       0.00        474
  val              :          0       0.00          0       0.00          0          0          0       0.00          0          0       0.00          0
  var              :      48790       0.00          0       0.00          0          0          0       0.00          0       3281       0.00        326
Nlhdlrs            :    Detects  DetectAll DetectTime   #IntEval  IntEvalTi   #RevProp  RevPropTi    DomReds    Cutoffs   #Enforce   EnfoTime       Cuts  Branching
  soc              :          1          1       0.00          0       0.00          0       0.00          0          0         86       0.00         34          0
  convex           :          0          0       0.00          0       0.00          0       0.00          0          0          0       0.00          0          0
  concave          :          6         12       0.00          0       0.00          0       0.00          0          0        521       0.00          1          0
  signomial        :         30         60       0.00          0       0.00          0       0.00          0          0       4492       0.00         10          0
  quotient         :          6         12       0.00          0       0.00          0       0.00          0          0        256       0.00         10          0
  quadratic        :         33       1419       0.00      20158       0.03      17834       0.04       6656         18          0       0.00          0          0
  default          :        301       9980       0.00      99539       0.03      15954       0.02       4668          0       5933       0.24        385          0
  bilinear         :          0          0       0.00          0       0.00          0       0.00          0          0          0       0.00          0          0
  perspective      :          0          0       0.00          0       0.00          0       0.00          0          0          0       0.00          0          0
LP                 :       Time      Calls Iterations  Iter/call   Iter/sec  Time-0-It Calls-0-It    ItLimit
  primal LP        :       0.02         20          0       0.00       0.00       0.02         20
  dual LP          :       0.11        235       1558      10.18   14710.74       0.01         82
  lex dual LP      :       0.00          0          0       0.00          -
  barrier LP       :       0.00          0          0       0.00          -       0.00          0
  resolve instable :       0.00          0          0       0.00          -
  diving/probing LP:       0.11        133       2069      15.56   19682.27
  strong branching :       0.08         81       2079      25.67   24592.49          -          -          0
    (at root node) :          -         54       1517      28.09          -
  conflict analysis:       0.00          0          0       0.00          -
NLP relaxation     :
  solve time       :       0.00 (0 calls)
  convexity        :  nonconvex (30 linear rows, 0 convex ineq., 24 nonconvex ineq., 25 nonlinear eq. or two-sided ineq.)
NLP Solvers        :  #Problems  ProblemTi    #Solves  SolveTime      #Iter  Time/Iter      #Okay #TimeLimit #IterLimit #LObjLimit #Interrupt  #NumError #EvalError  #OutOfMem #LicenseEr #OtherTerm   #GlobOpt    #LocOpt  #Feasible #LocInfeas #GlobInfea #Unbounded   #Unknown
  ipopt            :          2       0.00          0       0.00          0       0.00          0          0          0          0          0          0          0          0          0          0          0          0          0          0          0          0          0
B&B Tree           :
  number of runs   :          2
  nodes            :          7 (3 internal, 4 leaves)
  feasible leaves  :          0
  infeas. leaves   :          1
  objective leaves :          3
  nodes (total)    :          8 (4 internal, 4 leaves)
  nodes left       :          0
  max depth        :          3
  max depth (total):          3
  backtracks       :          2 (28.6%)
  early backtracks :          0 (0.0%)
  nodes exc. ref.  :          0 (0.0%)
  delayed cutoffs  :          0
  repropagations   :          1 (0 domain reductions, 0 cutoffs)
  avg switch length:       2.29
  switching time   :       0.00
Root Node          :
  First LP value   : +1.76218635715910e+04
  First LP Iters   :         23 (16405.14 Iter/sec)
  First LP Time    :       0.00
  Final Dual Bound : +2.01954908897331e+04
  Final Root Iters :       1303
  Root LP Estimate : +2.05735631070732e+04
Solution           :
  Solutions found  :          1 (1 improvements)
  First Solution   : +2.03394318387527e+04   (in run 1, after 1 nodes, 0.46 seconds, depth 0, found by <conflictdiving>)
  Gap First Sol.   :      10.47 %
  Gap Last Sol.    :      10.47 %
  Primal Bound     : +2.03394318387527e+04   (in run 1, after 1 nodes, 0.46 seconds, depth 0, found by <conflictdiving>)
  Dual Bound       : +2.03394318387527e+04
  Gap              :       0.00 %
Integrals          :      Total       Avg%
  primal-dual      :      51.10      27.38
  primal-ref       :          -          - (not evaluated)
  dual-ref         :          -          - (not evaluated)
